c 117_3_checker.cnf
c
c field = 117
c formula set type = 3_checker
c
p cnf 4 58
226 
228 
230 
-224 
227 
229 
231 
-225 
226 
228 
230 
-234 
227 
229 
231 
-235 
228 
230 
234 
-226 
229 
231 
235 
-227 
228 
230 
234 
-236 
229 
231 
235 
-237 
230 
234 
236 
-228 
231 
235 
237 
-229 
230 
234 
236 
-238 
231 
235 
237 
-239 
234 
236 
238 
-230 
235 
237 
239 
-231 
142 
172 
202 
-112 
143 
173 
203 
-113 
142 
172 
202 
-262 
143 
173 
203 
-263 
172 
202 
262 
-142 
173 
203 
263 
-143 
172 
202 
262 
-292 
173 
203 
263 
-293 
202 
262 
292 
-172 
203 
263 
293 
-173 
202 
262 
292 
-322 
203 
263 
293 
-323 
262 
292 
322 
-202 
263 
293 
323 
-203 
262 
292 
322 
-352 
263 
293 
323 
-353 
136 
168 
200 
-104 
137 
169 
201 
-105 
136 
168 
200 
-264 
137 
169 
201 
-265 
168 
200 
264 
-136 
169 
201 
265 
-137 
168 
200 
264 
-296 
169 
201 
265 
-297 
200 
264 
296 
-168 
201 
265 
297 
-169 
200 
264 
296 
-328 
201 
265 
297 
-329 
264 
296 
328 
-200 
265 
297 
329 
-201 
148 
176 
204 
-260 
149 
177 
205 
-261 
176 
204 
260 
-148 
177 
205 
261 
-149 
176 
204 
260 
-288 
177 
205 
261 
-289 
204 
260 
288 
-176 
205 
261 
289 
-177 
204 
260 
288 
-316 
205 
261 
289 
-317 
260 
288 
316 
-204 
261 
289 
317 
-205 
260 
288 
316 
-344 
261 
289 
317 
-345 
